60	1
0 90
0 52
0 27
0 15
0 1
0 12
0 55
0 17
0 26
0 44
0 68
0 48
0 85
0 83
0 75
0 72
0 33
0 89
0 43
0 29
0 78
0 14
0 9
0 35
0 83
0 24
0 35
0 48
0 72
0 80
0 28
0 7
0 58
0 18
0 65
0 97
0 76
0 18
0 74
0 24
0 10
0 56
0 26
0 21
0 90
0 12
0 92
0 17
0 93
0 64
0 83
0 29
0 32
0 31
0 98
0 86
0 98
0 99
0 69
0 48
